N=10;
m=[
	[0 5 2 10 7 2 2 4 3 10]
	[9 0 4 0 4 10 7 2 3 10]
	[1 6 0 0 8 2 4 10 4 10]
	[7 0 0 0 9 3 9 1 7 6]
	[1 9 2 7 0 2 1 6 5 3]
	[3 1 9 1 5 0 4 8 2 7]
	[5 6 10 3 4 7 0 2 3 1]
	[9 8 3 3 7 3 9 0 9 9]
	[4 7 8 7 1 9 7 9 0 0]
	[4 1 9 8 1 3 8 6 0 0]
];
